;; produced by colibri_gnatprove.drv ;;
(set-logic QF_AUFFPBVNIRA)
(set-info :source |VC generated by SPARK 2014|)
(set-info :smt-lib-version 2.5)
(set-info :category industrial)
(set-info :status unknown)
;;; generated by SMT-LIB2 driver
;;; SMT-LIB2 driver: bit-vectors, common part
;;; SMT-LIB2: integer arithmetic
;;; SMT-LIB2: real arithmetic
(define-fun fp.isFinite32 ((x Float32)) Bool (not (or (fp.isInfinite x) (fp.isNaN x))))
(define-fun is_plus_infinity ((x Float32)) Bool (and (fp.isInfinite  x)
                                                (fp.isPositive  x)))

(define-fun is_minus_infinity ((x Float32)) Bool (and (fp.isInfinite  x)
                                                 (fp.isNegative  x)))

(define-fun is_plus_zero ((x Float32)) Bool (and (fp.isZero      x)
                                            (fp.isPositive  x)))

(define-fun is_minus_zero ((x Float32)) Bool (and (fp.isZero      x)
                                             (fp.isNegative  x)))

(declare-const max_int Int)

(define-fun in_int_range ((i Int)) Bool (and (<= (- max_int) i)
                                        (<= i max_int)))

(define-fun in_safe_int_range ((i Int)) Bool (and (<= (- 16777216) i)
                                             (<= i 16777216)))

(define-fun same_sign ((x Float32)
  (y Float32)) Bool (or (and (fp.isPositive  x) (fp.isPositive  y))
                    (and (fp.isNegative  x) (fp.isNegative  y))))

(define-fun diff_sign ((x Float32)
  (y Float32)) Bool (or (and (fp.isPositive  x) (fp.isNegative  y))
                    (and (fp.isNegative  x) (fp.isPositive  y))))

(define-fun product_sign ((z Float32) (x Float32)
  (y Float32)) Bool (and (=> (same_sign x y) (fp.isPositive  z))
                    (=> (diff_sign x y) (fp.isNegative  z))))

(define-fun sqr ((x Real)) Real (* x x))

(define-fun same_sign_real ((x Float32)
  (r Real)) Bool (or (and (fp.isPositive  x) (< 0.0 r))
                 (and (fp.isNegative  x) (< r 0.0))))

(define-fun to_int1 ((b Bool)) Int (ite (= b true) 1 0))

(define-fun of_int ((i Int)) Bool (ite (= i 0) false true))

(define-fun in_range ((x Int)) Bool (or (= x 0) (= x 1)))

(define-fun dynamic_invariant ((temp___expr_51 Float32)
  (temp___is_init_48 Bool) (temp___skip_constant_49 Bool)
  (temp___do_toplevel_50 Bool)) Bool (=>
                                     (or (= temp___is_init_48 true)
                                     (fp.leq (fp.neg (fp #b0 #b11111110 #b11111111111111111111111)) (fp #b0 #b11111110 #b11111111111111111111111)))
                                     (fp.isFinite32 temp___expr_51)))

(define-fun in_range1 ((x Float32)) Bool (and (fp.isFinite32 x)
                                         (and
                                         (fp.leq (fp #b0 #b00000000 #b00000000000000000000000) x)
                                         (fp.leq x (fp #b0 #b11111110 #b11111111111111111111111)))))

(define-fun in_range2 ((x Float32)) Bool (and (fp.isFinite32 x)
                                         (and
                                         (fp.leq (fp #b0 #b00000000 #b00000000000000000000000) x)
                                         (fp.leq x (fp #b0 #b11111110 #b11111111111111111111111)))))

(define-fun dynamic_invariant1 ((temp___expr_146 Float32)
  (temp___is_init_143 Bool) (temp___skip_constant_144 Bool)
  (temp___do_toplevel_145 Bool)) Bool (=>
                                      (or (= temp___is_init_143 true)
                                      (fp.leq (fp #b0 #b00000000 #b00000000000000000000000) (fp #b0 #b11111110 #b11111111111111111111111)))
                                      (in_range2 temp___expr_146)))

(define-fun in_range3 ((x Float32)) Bool (and (fp.isFinite32 x)
                                         (and
                                         (fp.leq (fp #b0 #b00000000 #b00000000000000000000000) x)
                                         (fp.leq x (fp #b0 #b10000001 #b10010010000111111011011)))))

(declare-const value__size Int)

(declare-const value__alignment Int)

;; value__size_axiom
  (assert (<= 0 value__size))

;; value__alignment_axiom
  (assert (<= 0 value__alignment))

(declare-const spaces__angles__angle__theta__first__bit Int)

(declare-const spaces__angles__angle__theta__last__bit Int)

(declare-const spaces__angles__angle__theta__position Int)

;; spaces__angles__angle__theta__first__bit_axiom
  (assert (<= 0 spaces__angles__angle__theta__first__bit))

;; spaces__angles__angle__theta__last__bit_axiom
  (assert
  (< spaces__angles__angle__theta__first__bit spaces__angles__angle__theta__last__bit))

;; spaces__angles__angle__theta__position_axiom
  (assert (<= 0 spaces__angles__angle__theta__position))

(define-fun in_range4 ((x Int)) Bool (and (<= 0 x) (<= x 2147483647)))

(declare-const value__size1 Int)

(declare-const value__component__size Int)

(declare-const value__alignment1 Int)

;; value__size_axiom
  (assert (<= 0 value__size1))

;; value__component__size_axiom
  (assert (<= 0 value__component__size))

;; value__alignment_axiom
  (assert (<= 0 value__alignment1))

(define-fun in_range5 ((x Int)) Bool (and (<= 0 x) (<= x 1)))

(declare-const value__size2 Int)

(declare-const value__alignment2 Int)

;; value__size_axiom
  (assert (<= 0 value__size2))

;; value__alignment_axiom
  (assert (<= 0 value__alignment2))

(declare-const robot_iface__speed_option__opt__first__bit Int)

(declare-const robot_iface__speed_option__opt__last__bit Int)

(declare-const robot_iface__speed_option__opt__position Int)

;; robot_iface__speed_option__opt__first__bit_axiom
  (assert (<= 0 robot_iface__speed_option__opt__first__bit))

;; robot_iface__speed_option__opt__last__bit_axiom
  (assert
  (< robot_iface__speed_option__opt__first__bit robot_iface__speed_option__opt__last__bit))

;; robot_iface__speed_option__opt__position_axiom
  (assert (<= 0 robot_iface__speed_option__opt__position))

(declare-const robot_iface__speed_option__modulus__first__bit Int)

(declare-const robot_iface__speed_option__modulus__last__bit Int)

(declare-const robot_iface__speed_option__modulus__position Int)

;; robot_iface__speed_option__modulus__first__bit_axiom
  (assert (<= 0 robot_iface__speed_option__modulus__first__bit))

;; robot_iface__speed_option__modulus__last__bit_axiom
  (assert
  (< robot_iface__speed_option__modulus__first__bit robot_iface__speed_option__modulus__last__bit))

;; robot_iface__speed_option__modulus__position_axiom
  (assert (<= 0 robot_iface__speed_option__modulus__position))

(declare-const robot_iface__speed_option__angle__first__bit Int)

(declare-const robot_iface__speed_option__angle__last__bit Int)

(declare-const robot_iface__speed_option__angle__position Int)

;; robot_iface__speed_option__angle__first__bit_axiom
  (assert (<= 0 robot_iface__speed_option__angle__first__bit))

;; robot_iface__speed_option__angle__last__bit_axiom
  (assert
  (< robot_iface__speed_option__angle__first__bit robot_iface__speed_option__angle__last__bit))

;; robot_iface__speed_option__angle__position_axiom
  (assert (<= 0 robot_iface__speed_option__angle__position))

(declare-const value__size3 Int)

(declare-const value__alignment3 Int)

;; value__size_axiom
  (assert (<= 0 value__size3))

;; value__alignment_axiom
  (assert (<= 0 value__alignment3))

(declare-const robot_iface__proxy__robot_radius__first__bit Int)

(declare-const robot_iface__proxy__robot_radius__last__bit Int)

(declare-const robot_iface__proxy__robot_radius__position Int)

;; robot_iface__proxy__robot_radius__first__bit_axiom
  (assert (<= 0 robot_iface__proxy__robot_radius__first__bit))

;; robot_iface__proxy__robot_radius__last__bit_axiom
  (assert
  (< robot_iface__proxy__robot_radius__first__bit robot_iface__proxy__robot_radius__last__bit))

;; robot_iface__proxy__robot_radius__position_axiom
  (assert (<= 0 robot_iface__proxy__robot_radius__position))

(declare-const robot_iface__proxy__min_gap_width__first__bit Int)

(declare-const robot_iface__proxy__min_gap_width__last__bit Int)

(declare-const robot_iface__proxy__min_gap_width__position Int)

;; robot_iface__proxy__min_gap_width__first__bit_axiom
  (assert (<= 0 robot_iface__proxy__min_gap_width__first__bit))

;; robot_iface__proxy__min_gap_width__last__bit_axiom
  (assert
  (< robot_iface__proxy__min_gap_width__first__bit robot_iface__proxy__min_gap_width__last__bit))

;; robot_iface__proxy__min_gap_width__position_axiom
  (assert (<= 0 robot_iface__proxy__min_gap_width__position))

(declare-const robot_iface__proxy__obstacle_avoid_dist__first__bit Int)

(declare-const robot_iface__proxy__obstacle_avoid_dist__last__bit Int)

(declare-const robot_iface__proxy__obstacle_avoid_dist__position Int)

;; robot_iface__proxy__obstacle_avoid_dist__first__bit_axiom
  (assert (<= 0 robot_iface__proxy__obstacle_avoid_dist__first__bit))

;; robot_iface__proxy__obstacle_avoid_dist__last__bit_axiom
  (assert
  (< robot_iface__proxy__obstacle_avoid_dist__first__bit robot_iface__proxy__obstacle_avoid_dist__last__bit))

;; robot_iface__proxy__obstacle_avoid_dist__position_axiom
  (assert (<= 0 robot_iface__proxy__obstacle_avoid_dist__position))

(declare-const robot_iface__proxy__max_speed__first__bit Int)

(declare-const robot_iface__proxy__max_speed__last__bit Int)

(declare-const robot_iface__proxy__max_speed__position Int)

;; robot_iface__proxy__max_speed__first__bit_axiom
  (assert (<= 0 robot_iface__proxy__max_speed__first__bit))

;; robot_iface__proxy__max_speed__last__bit_axiom
  (assert
  (< robot_iface__proxy__max_speed__first__bit robot_iface__proxy__max_speed__last__bit))

;; robot_iface__proxy__max_speed__position_axiom
  (assert (<= 0 robot_iface__proxy__max_speed__position))

(declare-const robot_iface__proxy__max_turn_rate__first__bit Int)

(declare-const robot_iface__proxy__max_turn_rate__last__bit Int)

(declare-const robot_iface__proxy__max_turn_rate__position Int)

;; robot_iface__proxy__max_turn_rate__first__bit_axiom
  (assert (<= 0 robot_iface__proxy__max_turn_rate__first__bit))

;; robot_iface__proxy__max_turn_rate__last__bit_axiom
  (assert
  (< robot_iface__proxy__max_turn_rate__first__bit robot_iface__proxy__max_turn_rate__last__bit))

;; robot_iface__proxy__max_turn_rate__position_axiom
  (assert (<= 0 robot_iface__proxy__max_turn_rate__position))

(declare-const robot_iface__proxy__goal_position_tol__first__bit Int)

(declare-const robot_iface__proxy__goal_position_tol__last__bit Int)

(declare-const robot_iface__proxy__goal_position_tol__position Int)

;; robot_iface__proxy__goal_position_tol__first__bit_axiom
  (assert (<= 0 robot_iface__proxy__goal_position_tol__first__bit))

;; robot_iface__proxy__goal_position_tol__last__bit_axiom
  (assert
  (< robot_iface__proxy__goal_position_tol__first__bit robot_iface__proxy__goal_position_tol__last__bit))

;; robot_iface__proxy__goal_position_tol__position_axiom
  (assert (<= 0 robot_iface__proxy__goal_position_tol__position))

(declare-const robot_iface__proxy__goal_angle_tol__first__bit Int)

(declare-const robot_iface__proxy__goal_angle_tol__last__bit Int)

(declare-const robot_iface__proxy__goal_angle_tol__position Int)

;; robot_iface__proxy__goal_angle_tol__first__bit_axiom
  (assert (<= 0 robot_iface__proxy__goal_angle_tol__first__bit))

;; robot_iface__proxy__goal_angle_tol__last__bit_axiom
  (assert
  (< robot_iface__proxy__goal_angle_tol__first__bit robot_iface__proxy__goal_angle_tol__last__bit))

;; robot_iface__proxy__goal_angle_tol__position_axiom
  (assert (<= 0 robot_iface__proxy__goal_angle_tol__position))

(declare-const robot_iface__proxy__goalx__first__bit Int)

(declare-const robot_iface__proxy__goalx__last__bit Int)

(declare-const robot_iface__proxy__goalx__position Int)

;; robot_iface__proxy__goalx__first__bit_axiom
  (assert (<= 0 robot_iface__proxy__goalx__first__bit))

;; robot_iface__proxy__goalx__last__bit_axiom
  (assert
  (< robot_iface__proxy__goalx__first__bit robot_iface__proxy__goalx__last__bit))

;; robot_iface__proxy__goalx__position_axiom
  (assert (<= 0 robot_iface__proxy__goalx__position))

(declare-const robot_iface__proxy__goaly__first__bit Int)

(declare-const robot_iface__proxy__goaly__last__bit Int)

(declare-const robot_iface__proxy__goaly__position Int)

;; robot_iface__proxy__goaly__first__bit_axiom
  (assert (<= 0 robot_iface__proxy__goaly__first__bit))

;; robot_iface__proxy__goaly__last__bit_axiom
  (assert
  (< robot_iface__proxy__goaly__first__bit robot_iface__proxy__goaly__last__bit))

;; robot_iface__proxy__goaly__position_axiom
  (assert (<= 0 robot_iface__proxy__goaly__position))

(declare-const robot_iface__proxy__goala__first__bit Int)

(declare-const robot_iface__proxy__goala__last__bit Int)

(declare-const robot_iface__proxy__goala__position Int)

;; robot_iface__proxy__goala__first__bit_axiom
  (assert (<= 0 robot_iface__proxy__goala__first__bit))

;; robot_iface__proxy__goala__last__bit_axiom
  (assert
  (< robot_iface__proxy__goala__first__bit robot_iface__proxy__goala__last__bit))

;; robot_iface__proxy__goala__position_axiom
  (assert (<= 0 robot_iface__proxy__goala__position))

(declare-const robot_iface__proxy__scan_count__first__bit Int)

(declare-const robot_iface__proxy__scan_count__last__bit Int)

(declare-const robot_iface__proxy__scan_count__position Int)

;; robot_iface__proxy__scan_count__first__bit_axiom
  (assert (<= 0 robot_iface__proxy__scan_count__first__bit))

;; robot_iface__proxy__scan_count__last__bit_axiom
  (assert
  (< robot_iface__proxy__scan_count__first__bit robot_iface__proxy__scan_count__last__bit))

;; robot_iface__proxy__scan_count__position_axiom
  (assert (<= 0 robot_iface__proxy__scan_count__position))

(declare-const robot_iface__proxy__scan_res__first__bit Int)

(declare-const robot_iface__proxy__scan_res__last__bit Int)

(declare-const robot_iface__proxy__scan_res__position Int)

;; robot_iface__proxy__scan_res__first__bit_axiom
  (assert (<= 0 robot_iface__proxy__scan_res__first__bit))

;; robot_iface__proxy__scan_res__last__bit_axiom
  (assert
  (< robot_iface__proxy__scan_res__first__bit robot_iface__proxy__scan_res__last__bit))

;; robot_iface__proxy__scan_res__position_axiom
  (assert (<= 0 robot_iface__proxy__scan_res__position))

(declare-const robot_iface__proxy__max_range__first__bit Int)

(declare-const robot_iface__proxy__max_range__last__bit Int)

(declare-const robot_iface__proxy__max_range__position Int)

;; robot_iface__proxy__max_range__first__bit_axiom
  (assert (<= 0 robot_iface__proxy__max_range__first__bit))

;; robot_iface__proxy__max_range__last__bit_axiom
  (assert
  (< robot_iface__proxy__max_range__first__bit robot_iface__proxy__max_range__last__bit))

;; robot_iface__proxy__max_range__position_axiom
  (assert (<= 0 robot_iface__proxy__max_range__position))

(declare-const robot_iface__proxy__scans__first__bit Int)

(declare-const robot_iface__proxy__scans__last__bit Int)

(declare-const robot_iface__proxy__scans__position Int)

;; robot_iface__proxy__scans__first__bit_axiom
  (assert (<= 0 robot_iface__proxy__scans__first__bit))

;; robot_iface__proxy__scans__last__bit_axiom
  (assert
  (< robot_iface__proxy__scans__first__bit robot_iface__proxy__scans__last__bit))

;; robot_iface__proxy__scans__position_axiom
  (assert (<= 0 robot_iface__proxy__scans__position))

(declare-const robot_iface__proxy__x__first__bit Int)

(declare-const robot_iface__proxy__x__last__bit Int)

(declare-const robot_iface__proxy__x__position Int)

;; robot_iface__proxy__x__first__bit_axiom
  (assert (<= 0 robot_iface__proxy__x__first__bit))

;; robot_iface__proxy__x__last__bit_axiom
  (assert
  (< robot_iface__proxy__x__first__bit robot_iface__proxy__x__last__bit))

;; robot_iface__proxy__x__position_axiom
  (assert (<= 0 robot_iface__proxy__x__position))

(declare-const robot_iface__proxy__y__first__bit Int)

(declare-const robot_iface__proxy__y__last__bit Int)

(declare-const robot_iface__proxy__y__position Int)

;; robot_iface__proxy__y__first__bit_axiom
  (assert (<= 0 robot_iface__proxy__y__first__bit))

;; robot_iface__proxy__y__last__bit_axiom
  (assert
  (< robot_iface__proxy__y__first__bit robot_iface__proxy__y__last__bit))

;; robot_iface__proxy__y__position_axiom
  (assert (<= 0 robot_iface__proxy__y__position))

(declare-const robot_iface__proxy__yaw__first__bit Int)

(declare-const robot_iface__proxy__yaw__last__bit Int)

(declare-const robot_iface__proxy__yaw__position Int)

;; robot_iface__proxy__yaw__first__bit_axiom
  (assert (<= 0 robot_iface__proxy__yaw__first__bit))

;; robot_iface__proxy__yaw__last__bit_axiom
  (assert
  (< robot_iface__proxy__yaw__first__bit robot_iface__proxy__yaw__last__bit))

;; robot_iface__proxy__yaw__position_axiom
  (assert (<= 0 robot_iface__proxy__yaw__position))

(declare-const robot_iface__proxy__speed__first__bit Int)

(declare-const robot_iface__proxy__speed__last__bit Int)

(declare-const robot_iface__proxy__speed__position Int)

;; robot_iface__proxy__speed__first__bit_axiom
  (assert (<= 0 robot_iface__proxy__speed__first__bit))

;; robot_iface__proxy__speed__last__bit_axiom
  (assert
  (< robot_iface__proxy__speed__first__bit robot_iface__proxy__speed__last__bit))

;; robot_iface__proxy__speed__position_axiom
  (assert (<= 0 robot_iface__proxy__speed__position))

(declare-const robot_iface__proxy__goal_reached__first__bit Int)

(declare-const robot_iface__proxy__goal_reached__last__bit Int)

(declare-const robot_iface__proxy__goal_reached__position Int)

;; robot_iface__proxy__goal_reached__first__bit_axiom
  (assert (<= 0 robot_iface__proxy__goal_reached__first__bit))

;; robot_iface__proxy__goal_reached__last__bit_axiom
  (assert
  (< robot_iface__proxy__goal_reached__first__bit robot_iface__proxy__goal_reached__last__bit))

;; robot_iface__proxy__goal_reached__position_axiom
  (assert (<= 0 robot_iface__proxy__goal_reached__position))

(declare-const value__size4 Int)

(declare-const value__alignment4 Int)

;; value__size_axiom
  (assert (<= 0 value__size4))

;; value__alignment_axiom
  (assert (<= 0 value__alignment4))

(declare-const algorithm__laser_scan_data__first__first__bit Int)

(declare-const algorithm__laser_scan_data__first__last__bit Int)

(declare-const algorithm__laser_scan_data__first__position Int)

;; algorithm__laser_scan_data__first__first__bit_axiom
  (assert (<= 0 algorithm__laser_scan_data__first__first__bit))

;; algorithm__laser_scan_data__first__last__bit_axiom
  (assert
  (< algorithm__laser_scan_data__first__first__bit algorithm__laser_scan_data__first__last__bit))

;; algorithm__laser_scan_data__first__position_axiom
  (assert (<= 0 algorithm__laser_scan_data__first__position))

(declare-const algorithm__laser_scan_data__second__first__bit Int)

(declare-const algorithm__laser_scan_data__second__last__bit Int)

(declare-const algorithm__laser_scan_data__second__position Int)

;; algorithm__laser_scan_data__second__first__bit_axiom
  (assert (<= 0 algorithm__laser_scan_data__second__first__bit))

;; algorithm__laser_scan_data__second__last__bit_axiom
  (assert
  (< algorithm__laser_scan_data__second__first__bit algorithm__laser_scan_data__second__last__bit))

;; algorithm__laser_scan_data__second__position_axiom
  (assert (<= 0 algorithm__laser_scan_data__second__position))

(define-fun in_range6 ((x Int)) Bool (and (<= 0 x) (<= x 2147483647)))

(declare-const value__size5 Int)

(declare-const value__alignment5 Int)

;; value__size_axiom
  (assert (<= 0 value__size5))

;; value__alignment_axiom
  (assert (<= 0 value__alignment5))

(declare-const algorithm__gap_vectors__list__capacity__first__bit Int)

(declare-const algorithm__gap_vectors__list__capacity__last__bit Int)

(declare-const algorithm__gap_vectors__list__capacity__position Int)

;; algorithm__gap_vectors__list__capacity__first__bit_axiom
  (assert (<= 0 algorithm__gap_vectors__list__capacity__first__bit))

;; algorithm__gap_vectors__list__capacity__last__bit_axiom
  (assert
  (< algorithm__gap_vectors__list__capacity__first__bit algorithm__gap_vectors__list__capacity__last__bit))

;; algorithm__gap_vectors__list__capacity__position_axiom
  (assert (<= 0 algorithm__gap_vectors__list__capacity__position))

(declare-const value__size6 Int)

(declare-const value__alignment6 Int)

;; value__size_axiom
  (assert (<= 0 value__size6))

;; value__alignment_axiom
  (assert (<= 0 value__alignment6))

(declare-const algorithm__gap_vectors__list__capacity__first__bit1 Int)

(declare-const algorithm__gap_vectors__list__capacity__last__bit1 Int)

(declare-const algorithm__gap_vectors__list__capacity__position1 Int)

;; algorithm__gap_vectors__list__capacity__first__bit_axiom
  (assert (<= 0 algorithm__gap_vectors__list__capacity__first__bit1))

;; algorithm__gap_vectors__list__capacity__last__bit_axiom
  (assert
  (< algorithm__gap_vectors__list__capacity__first__bit1 algorithm__gap_vectors__list__capacity__last__bit1))

;; algorithm__gap_vectors__list__capacity__position_axiom
  (assert (<= 0 algorithm__gap_vectors__list__capacity__position1))

(declare-const value__size7 Int)

(declare-const value__component__size1 Int)

(declare-const value__alignment7 Int)

;; value__size_axiom
  (assert (<= 0 value__size7))

;; value__component__size_axiom
  (assert (<= 0 value__component__size1))

;; value__alignment_axiom
  (assert (<= 0 value__alignment7))

(declare-const value__size8 Int)

(declare-const value__alignment8 Int)

;; value__size_axiom
  (assert (<= 0 value__size8))

;; value__alignment_axiom
  (assert (<= 0 value__alignment8))

(declare-const algorithm__controller__robot__first__bit Int)

(declare-const algorithm__controller__robot__last__bit Int)

(declare-const algorithm__controller__robot__position Int)

;; algorithm__controller__robot__first__bit_axiom
  (assert (<= 0 algorithm__controller__robot__first__bit))

;; algorithm__controller__robot__last__bit_axiom
  (assert
  (< algorithm__controller__robot__first__bit algorithm__controller__robot__last__bit))

;; algorithm__controller__robot__position_axiom
  (assert (<= 0 algorithm__controller__robot__position))

(declare-const algorithm__controller__laserscan__first__bit Int)

(declare-const algorithm__controller__laserscan__last__bit Int)

(declare-const algorithm__controller__laserscan__position Int)

;; algorithm__controller__laserscan__first__bit_axiom
  (assert (<= 0 algorithm__controller__laserscan__first__bit))

;; algorithm__controller__laserscan__last__bit_axiom
  (assert
  (< algorithm__controller__laserscan__first__bit algorithm__controller__laserscan__last__bit))

;; algorithm__controller__laserscan__position_axiom
  (assert (<= 0 algorithm__controller__laserscan__position))

(declare-const algorithm__controller__gapvec__first__bit Int)

(declare-const algorithm__controller__gapvec__last__bit Int)

(declare-const algorithm__controller__gapvec__position Int)

;; algorithm__controller__gapvec__first__bit_axiom
  (assert (<= 0 algorithm__controller__gapvec__first__bit))

;; algorithm__controller__gapvec__last__bit_axiom
  (assert
  (< algorithm__controller__gapvec__first__bit algorithm__controller__gapvec__last__bit))

;; algorithm__controller__gapvec__position_axiom
  (assert (<= 0 algorithm__controller__gapvec__position))

(declare-const algorithm__controller__obsavoiddelta__first__bit Int)

(declare-const algorithm__controller__obsavoiddelta__last__bit Int)

(declare-const algorithm__controller__obsavoiddelta__position Int)

;; algorithm__controller__obsavoiddelta__first__bit_axiom
  (assert (<= 0 algorithm__controller__obsavoiddelta__first__bit))

;; algorithm__controller__obsavoiddelta__last__bit_axiom
  (assert
  (< algorithm__controller__obsavoiddelta__first__bit algorithm__controller__obsavoiddelta__last__bit))

;; algorithm__controller__obsavoiddelta__position_axiom
  (assert (<= 0 algorithm__controller__obsavoiddelta__position))

(declare-const algorithm__controller__driveangle__first__bit Int)

(declare-const algorithm__controller__driveangle__last__bit Int)

(declare-const algorithm__controller__driveangle__position Int)

;; algorithm__controller__driveangle__first__bit_axiom
  (assert (<= 0 algorithm__controller__driveangle__first__bit))

;; algorithm__controller__driveangle__last__bit_axiom
  (assert
  (< algorithm__controller__driveangle__first__bit algorithm__controller__driveangle__last__bit))

;; algorithm__controller__driveangle__position_axiom
  (assert (<= 0 algorithm__controller__driveangle__position))

(declare-const attr__ATTRIBUTE_ADDRESS Int)

(declare-const value__size9 Int)

(declare-const value__alignment9 Int)

;; value__size_axiom
  (assert (<= 0 value__size9))

;; value__alignment_axiom
  (assert (<= 0 value__alignment9))

(declare-const robot_iface__speed_option__opt__first__bit1 Int)

(declare-const robot_iface__speed_option__opt__last__bit1 Int)

(declare-const robot_iface__speed_option__opt__position1 Int)

;; robot_iface__speed_option__opt__first__bit_axiom
  (assert (<= 0 robot_iface__speed_option__opt__first__bit1))

;; robot_iface__speed_option__opt__last__bit_axiom
  (assert
  (< robot_iface__speed_option__opt__first__bit1 robot_iface__speed_option__opt__last__bit1))

;; robot_iface__speed_option__opt__position_axiom
  (assert (<= 0 robot_iface__speed_option__opt__position1))

(declare-const robot_iface__speed_option__modulus__first__bit1 Int)

(declare-const robot_iface__speed_option__modulus__last__bit1 Int)

(declare-const robot_iface__speed_option__modulus__position1 Int)

;; robot_iface__speed_option__modulus__first__bit_axiom
  (assert (<= 0 robot_iface__speed_option__modulus__first__bit1))

;; robot_iface__speed_option__modulus__last__bit_axiom
  (assert
  (< robot_iface__speed_option__modulus__first__bit1 robot_iface__speed_option__modulus__last__bit1))

;; robot_iface__speed_option__modulus__position_axiom
  (assert (<= 0 robot_iface__speed_option__modulus__position1))

(declare-const robot_iface__speed_option__angle__first__bit1 Int)

(declare-const robot_iface__speed_option__angle__last__bit1 Int)

(declare-const robot_iface__speed_option__angle__position1 Int)

;; robot_iface__speed_option__angle__first__bit_axiom
  (assert (<= 0 robot_iface__speed_option__angle__first__bit1))

;; robot_iface__speed_option__angle__last__bit_axiom
  (assert
  (< robot_iface__speed_option__angle__first__bit1 robot_iface__speed_option__angle__last__bit1))

;; robot_iface__speed_option__angle__position_axiom
  (assert (<= 0 robot_iface__speed_option__angle__position1))

(declare-const attr__ATTRIBUTE_ADDRESS1 Int)

(declare-const safetydist Float32)

(declare-const attr__ATTRIBUTE_ADDRESS2 Int)

(define-fun in_range7 ((x Float32)) Bool (and (fp.isFinite32 x)
                                         (and
                                         (fp.leq (fp #b0 #b00000000 #b00000000000000000000000) x)
                                         (fp.leq x (fp #b0 #b01111111 #b00000000000000000000000)))))

(define-fun dynamic_invariant2 ((temp___expr_679 Float32)
  (temp___is_init_676 Bool) (temp___skip_constant_677 Bool)
  (temp___do_toplevel_678 Bool)) Bool (=>
                                      (or (= temp___is_init_676 true)
                                      (fp.leq (fp #b0 #b00000000 #b00000000000000000000000) (fp #b0 #b01111111 #b00000000000000000000000)))
                                      (in_range7 temp___expr_679)))

(declare-const attr__ATTRIBUTE_ADDRESS3 Int)

(declare-const attr__ATTRIBUTE_ADDRESS4 Int)

(declare-const attr__ATTRIBUTE_ADDRESS5 Int)

(declare-const attr__ATTRIBUTE_ADDRESS6 Int)

(define-fun in_range8 ((x Int)) Bool (and (<= (- 2147483648) x)
                                     (<= x 2147483647)))

(define-fun dynamic_property ((first_int Int) (last_int Int)
  (x Int)) Bool (and (<= first_int x) (<= x last_int)))

(declare-const attr__ATTRIBUTE_ADDRESS7 Int)

(define-fun dynamic_invariant3 ((temp___expr_33 Int) (temp___is_init_30 Bool)
  (temp___skip_constant_31 Bool)
  (temp___do_toplevel_32 Bool)) Bool (=>
                                     (or (= temp___is_init_30 true)
                                     (<= 0 2147483647)) (in_range4
                                     temp___expr_33)))

(define-fun dynamic_invariant4 ((temp___expr_15 Int) (temp___is_init_12 Bool)
  (temp___skip_constant_13 Bool)
  (temp___do_toplevel_14 Bool)) Bool (=>
                                     (or (= temp___is_init_12 true)
                                     (<= (- 2147483648) 2147483647))
                                     (in_range8 temp___expr_15)))

(define-fun dynamic_invariant5 ((temp___expr_220 Int)
  (temp___is_init_217 Bool) (temp___skip_constant_218 Bool)
  (temp___do_toplevel_219 Bool)) Bool (=>
                                      (or (= temp___is_init_217 true)
                                      (<= 0 1)) (in_range5 temp___expr_220)))

(define-fun dynamic_invariant6 ((temp___expr_140 Float32)
  (temp___is_init_137 Bool) (temp___skip_constant_138 Bool)
  (temp___do_toplevel_139 Bool)) Bool (=>
                                      (or (= temp___is_init_137 true)
                                      (fp.leq (fp #b0 #b00000000 #b00000000000000000000000) (fp #b0 #b11111110 #b11111111111111111111111)))
                                      (in_range1 temp___expr_140)))

(define-fun dynamic_invariant7 ((temp___expr_158 Float32)
  (temp___is_init_155 Bool) (temp___skip_constant_156 Bool)
  (temp___do_toplevel_157 Bool)) Bool (=>
                                      (or (= temp___is_init_155 true)
                                      (fp.leq (fp.neg (fp #b0 #b11111110 #b11111111111111111111111)) (fp #b0 #b11111110 #b11111111111111111111111)))
                                      (fp.isFinite32 temp___expr_158)))

(define-fun dynamic_invariant8 ((temp___expr_170 Float32)
  (temp___is_init_167 Bool) (temp___skip_constant_168 Bool)
  (temp___do_toplevel_169 Bool)) Bool (=>
                                      (or (= temp___is_init_167 true)
                                      (fp.leq (fp #b0 #b00000000 #b00000000000000000000000) (fp #b0 #b10000001 #b10010010000111111011011)))
                                      (in_range3 temp___expr_170)))

(define-fun dynamic_invariant9 ((temp___expr_324 Int)
  (temp___is_init_321 Bool) (temp___skip_constant_322 Bool)
  (temp___do_toplevel_323 Bool)) Bool (=>
                                      (or (= temp___is_init_321 true)
                                      (<= 0 2147483647)) (in_range6
                                      temp___expr_324)))

(declare-const deltamag Float32)

(declare-const deltaangle Float32)

(declare-const deltaareasum Float32)

(declare-const obstacleavoiddelta Float32)

(declare-const i Int)

(declare-const temp___884 Float32)

(declare-const temp___883 Float32)

(declare-const temp___882 Float32)

(declare-const temp___881 Float32)

(declare-const temp___880 Int)

(declare-const temp___879 Float32)

(declare-const o Float32)

(declare-const o1 Float32)

(declare-const o2 Float32)

(declare-const o3 Float32)

(declare-const o4 Float32)

(declare-const o5 Float32)

(declare-const o6 Float32)

(declare-const o7 Float32)

(declare-const o8 Float32)

(declare-const o9 Float32)

(declare-const o10 Float32)

(declare-const o11 Float32)

(declare-const o12 Float32)

(declare-const deltamag1 Float32)

(declare-const deltaangle1 Float32)

(declare-const result Float32)

(declare-const deltaareasum1 Float32)

(declare-const result1 Float32)

(declare-const obstacleavoiddelta1 Float32)

(declare-const result2 Int)

(declare-const i1 Int)

(declare-const deltamag2 Float32)

(declare-const deltaangle2 Float32)

(declare-const deltaareasum2 Float32)

(declare-const obstacleavoiddelta2 Float32)

(declare-const i2 Int)

(declare-const result3 Bool)

(declare-const result4 Float32)

(declare-const deltamag3 Float32)

(declare-const result5 Float32)

(declare-const deltaangle3 Float32)

(declare-const result6 Float32)

(declare-const deltaareasum3 Float32)

(declare-const result7 Float32)

(declare-const obstacleavoiddelta3 Float32)

(declare-const result8 Int)

(declare-const i3 Int)

(declare-const deltamag4 Float32)

(declare-const deltaangle4 Float32)

(declare-const deltaareasum4 Float32)

(declare-const obstacleavoiddelta4 Float32)

(declare-const deltamag5 Float32)

(declare-const deltaangle5 Float32)

(declare-const deltaareasum5 Float32)

(declare-const obstacleavoiddelta5 Float32)

(declare-const i4 Int)

(declare-const deltamag6 Float32)

(declare-const deltaangle6 Float32)

(declare-const deltaareasum6 Float32)

(declare-const obstacleavoiddelta6 Float32)

(declare-const i5 Int)

(declare-const deltamag7 Float32)

(declare-const deltaangle7 Float32)

(declare-const deltaareasum7 Float32)

(declare-const obstacleavoiddelta7 Float32)

(declare-const i6 Int)

;; H
  (assert (fp.isFinite32 safetydist))

;; H
  (assert
  (not (fp.eq safetydist (fp #b0 #b00000000 #b00000000000000000000000))))

;; H
  (assert
  (=>
  (fp.leq (fp #b0 #b00000000 #b00000000000000000000000) (fp #b0 #b01111111 #b00000000000000000000000))
  (in_range7 deltamag)))

;; H
  (assert
  (=>
  (fp.leq (fp.neg (fp #b0 #b11111110 #b11111111111111111111111)) (fp #b0 #b11111110 #b11111111111111111111111))
  (fp.isFinite32 deltaangle)))

;; H
  (assert (= result deltaareasum))

;; H
  (assert (= deltaareasum1 (fp #b0 #b00000000 #b00000000000000000000000)))

;; H
  (assert (in_range2 deltaareasum1))

;; H
  (assert (= result1 obstacleavoiddelta))

;; H
  (assert
  (= obstacleavoiddelta1 (fp #b0 #b00000000 #b00000000000000000000000)))

;; H
  (assert (fp.isFinite32 obstacleavoiddelta1))

;; H
  (assert (= i1 1))

;; H
  (assert (<= 1 i1))

;; H
  (assert (<= i1 1000))

;; H
  (assert
  (and
  (and
  (and
  (and
  (and
  (=>
  (fp.leq (fp.neg (fp #b0 #b11111110 #b11111111111111111111111)) (fp #b0 #b11111110 #b11111111111111111111111))
  (fp.isFinite32 obstacleavoiddelta2))
  (=> (<= 1 1000) (dynamic_property 1 1000 i2)))
  (=>
  (fp.leq (fp #b0 #b00000000 #b00000000000000000000000) (fp #b0 #b01111111 #b00000000000000000000000))
  (in_range7 deltamag2)))
  (=>
  (fp.leq (fp.neg (fp #b0 #b11111110 #b11111111111111111111111)) (fp #b0 #b11111110 #b11111111111111111111111))
  (fp.isFinite32 deltaangle2)))
  (=>
  (fp.leq (fp #b0 #b00000000 #b00000000000000000000000) (fp #b0 #b11111110 #b11111111111111111111111))
  (in_range2 deltaareasum2))) (and (<= 1 i2) (<= i2 1000))))

;; H
  (assert (= result3 true))

;; H
  (assert (and (= o3 o2) (fp.isFinite32 o2)))

;; H
  (assert (= o4 (fp.div RNE o3 safetydist)))

;; H
  (assert (and (= o5 o4) (fp.isFinite32 o4)))

(declare-const abstr Float32)

;; H
  (assert
  (and (= o6 abstr)
  (and (fp.isFinite32 o6)
  (and (fp.leq (fp #b0 #b00000000 #b00000000000000000000000) o6)
  (fp.leq o6 (fp #b0 #b01111111 #b00000000000000000000000))))))

(assert
;; WP_parameter_def
 ;; File "system.ads", line 1, characters 0-0
  (not (in_range7 o6)))
(check-sat)
(exit)
